c File: flat200_3_0.col
c
c SOURCE: Joseph Culberson (joe@cs.ualberta.ca)
c DESCRIPTION: Quasi-random coloring problem
c              generated with flatness = 0
c                             probability = 0.036
c                             known coloring = 3
c                             random seed = 1043
c              Creation Date:  Wed Feb 24 10:39:53 1999
c Maximum degree = 8 Minimum degree = 1
c COLOR VERIFICATION: Using the permuted order
c under simple greedy yields the specified
c coloring number
c Color = 3 specified partitions = 3
c p edge 200 479
c cnf created by edge2cnf
p cnf 600 2237
-1 -2 0
-1 -3 0
-2 -3 0
1 2 3 0
-4 -5 0
-4 -6 0
-5 -6 0
4 5 6 0
-7 -8 0
-7 -9 0
-8 -9 0
7 8 9 0
-10 -11 0
-10 -12 0
-11 -12 0
10 11 12 0
-13 -14 0
-13 -15 0
-14 -15 0
13 14 15 0
-16 -17 0
-16 -18 0
-17 -18 0
16 17 18 0
-19 -20 0
-19 -21 0
-20 -21 0
19 20 21 0
-22 -23 0
-22 -24 0
-23 -24 0
22 23 24 0
-25 -26 0
-25 -27 0
-26 -27 0
25 26 27 0
-28 -29 0
-28 -30 0
-29 -30 0
28 29 30 0
-31 -32 0
-31 -33 0
-32 -33 0
31 32 33 0
-34 -35 0
-34 -36 0
-35 -36 0
34 35 36 0
-37 -38 0
-37 -39 0
-38 -39 0
37 38 39 0
-40 -41 0
-40 -42 0
-41 -42 0
40 41 42 0
-43 -44 0
-43 -45 0
-44 -45 0
43 44 45 0
-46 -47 0
-46 -48 0
-47 -48 0
46 47 48 0
-49 -50 0
-49 -51 0
-50 -51 0
49 50 51 0
-52 -53 0
-52 -54 0
-53 -54 0
52 53 54 0
-55 -56 0
-55 -57 0
-56 -57 0
55 56 57 0
-58 -59 0
-58 -60 0
-59 -60 0
58 59 60 0
-61 -62 0
-61 -63 0
-62 -63 0
61 62 63 0
-64 -65 0
-64 -66 0
-65 -66 0
64 65 66 0
-67 -68 0
-67 -69 0
-68 -69 0
67 68 69 0
-70 -71 0
-70 -72 0
-71 -72 0
70 71 72 0
-73 -74 0
-73 -75 0
-74 -75 0
73 74 75 0
-76 -77 0
-76 -78 0
-77 -78 0
76 77 78 0
-79 -80 0
-79 -81 0
-80 -81 0
79 80 81 0
-82 -83 0
-82 -84 0
-83 -84 0
82 83 84 0
-85 -86 0
-85 -87 0
-86 -87 0
85 86 87 0
-88 -89 0
-88 -90 0
-89 -90 0
88 89 90 0
-91 -92 0
-91 -93 0
-92 -93 0
91 92 93 0
-94 -95 0
-94 -96 0
-95 -96 0
94 95 96 0
-97 -98 0
-97 -99 0
-98 -99 0
97 98 99 0
-100 -101 0
-100 -102 0
-101 -102 0
100 101 102 0
-103 -104 0
-103 -105 0
-104 -105 0
103 104 105 0
-106 -107 0
-106 -108 0
-107 -108 0
106 107 108 0
-109 -110 0
-109 -111 0
-110 -111 0
109 110 111 0
-112 -113 0
-112 -114 0
-113 -114 0
112 113 114 0
-115 -116 0
-115 -117 0
-116 -117 0
115 116 117 0
-118 -119 0
-118 -120 0
-119 -120 0
118 119 120 0
-121 -122 0
-121 -123 0
-122 -123 0
121 122 123 0
-124 -125 0
-124 -126 0
-125 -126 0
124 125 126 0
-127 -128 0
-127 -129 0
-128 -129 0
127 128 129 0
-130 -131 0
-130 -132 0
-131 -132 0
130 131 132 0
-133 -134 0
-133 -135 0
-134 -135 0
133 134 135 0
-136 -137 0
-136 -138 0
-137 -138 0
136 137 138 0
-139 -140 0
-139 -141 0
-140 -141 0
139 140 141 0
-142 -143 0
-142 -144 0
-143 -144 0
142 143 144 0
-145 -146 0
-145 -147 0
-146 -147 0
145 146 147 0
-148 -149 0
-148 -150 0
-149 -150 0
148 149 150 0
-151 -152 0
-151 -153 0
-152 -153 0
151 152 153 0
-154 -155 0
-154 -156 0
-155 -156 0
154 155 156 0
-157 -158 0
-157 -159 0
-158 -159 0
157 158 159 0
-160 -161 0
-160 -162 0
-161 -162 0
160 161 162 0
-163 -164 0
-163 -165 0
-164 -165 0
163 164 165 0
-166 -167 0
-166 -168 0
-167 -168 0
166 167 168 0
-169 -170 0
-169 -171 0
-170 -171 0
169 170 171 0
-172 -173 0
-172 -174 0
-173 -174 0
172 173 174 0
-175 -176 0
-175 -177 0
-176 -177 0
175 176 177 0
-178 -179 0
-178 -180 0
-179 -180 0
178 179 180 0
-181 -182 0
-181 -183 0
-182 -183 0
181 182 183 0
-184 -185 0
-184 -186 0
-185 -186 0
184 185 186 0
-187 -188 0
-187 -189 0
-188 -189 0
187 188 189 0
-190 -191 0
-190 -192 0
-191 -192 0
190 191 192 0
-193 -194 0
-193 -195 0
-194 -195 0
193 194 195 0
-196 -197 0
-196 -198 0
-197 -198 0
196 197 198 0
-199 -200 0
-199 -201 0
-200 -201 0
199 200 201 0
-202 -203 0
-202 -204 0
-203 -204 0
202 203 204 0
-205 -206 0
-205 -207 0
-206 -207 0
205 206 207 0
-208 -209 0
-208 -210 0
-209 -210 0
208 209 210 0
-211 -212 0
-211 -213 0
-212 -213 0
211 212 213 0
-214 -215 0
-214 -216 0
-215 -216 0
214 215 216 0
-217 -218 0
-217 -219 0
-218 -219 0
217 218 219 0
-220 -221 0
-220 -222 0
-221 -222 0
220 221 222 0
-223 -224 0
-223 -225 0
-224 -225 0
223 224 225 0
-226 -227 0
-226 -228 0
-227 -228 0
226 227 228 0
-229 -230 0
-229 -231 0
-230 -231 0
229 230 231 0
-232 -233 0
-232 -234 0
-233 -234 0
232 233 234 0
-235 -236 0
-235 -237 0
-236 -237 0
235 236 237 0
-238 -239 0
-238 -240 0
-239 -240 0
238 239 240 0
-241 -242 0
-241 -243 0
-242 -243 0
241 242 243 0
-244 -245 0
-244 -246 0
-245 -246 0
244 245 246 0
-247 -248 0
-247 -249 0
-248 -249 0
247 248 249 0
-250 -251 0
-250 -252 0
-251 -252 0
250 251 252 0
-253 -254 0
-253 -255 0
-254 -255 0
253 254 255 0
-256 -257 0
-256 -258 0
-257 -258 0
256 257 258 0
-259 -260 0
-259 -261 0
-260 -261 0
259 260 261 0
-262 -263 0
-262 -264 0
-263 -264 0
262 263 264 0
-265 -266 0
-265 -267 0
-266 -267 0
265 266 267 0
-268 -269 0
-268 -270 0
-269 -270 0
268 269 270 0
-271 -272 0
-271 -273 0
-272 -273 0
271 272 273 0
-274 -275 0
-274 -276 0
-275 -276 0
274 275 276 0
-277 -278 0
-277 -279 0
-278 -279 0
277 278 279 0
-280 -281 0
-280 -282 0
-281 -282 0
280 281 282 0
-283 -284 0
-283 -285 0
-284 -285 0
283 284 285 0
-286 -287 0
-286 -288 0
-287 -288 0
286 287 288 0
-289 -290 0
-289 -291 0
-290 -291 0
289 290 291 0
-292 -293 0
-292 -294 0
-293 -294 0
292 293 294 0
-295 -296 0
-295 -297 0
-296 -297 0
295 296 297 0
-298 -299 0
-298 -300 0
-299 -300 0
298 299 300 0
-301 -302 0
-301 -303 0
-302 -303 0
301 302 303 0
-304 -305 0
-304 -306 0
-305 -306 0
304 305 306 0
-307 -308 0
-307 -309 0
-308 -309 0
307 308 309 0
-310 -311 0
-310 -312 0
-311 -312 0
310 311 312 0
-313 -314 0
-313 -315 0
-314 -315 0
313 314 315 0
-316 -317 0
-316 -318 0
-317 -318 0
316 317 318 0
-319 -320 0
-319 -321 0
-320 -321 0
319 320 321 0
-322 -323 0
-322 -324 0
-323 -324 0
322 323 324 0
-325 -326 0
-325 -327 0
-326 -327 0
325 326 327 0
-328 -329 0
-328 -330 0
-329 -330 0
328 329 330 0
-331 -332 0
-331 -333 0
-332 -333 0
331 332 333 0
-334 -335 0
-334 -336 0
-335 -336 0
334 335 336 0
-337 -338 0
-337 -339 0
-338 -339 0
337 338 339 0
-340 -341 0
-340 -342 0
-341 -342 0
340 341 342 0
-343 -344 0
-343 -345 0
-344 -345 0
343 344 345 0
-346 -347 0
-346 -348 0
-347 -348 0
346 347 348 0
-349 -350 0
-349 -351 0
-350 -351 0
349 350 351 0
-352 -353 0
-352 -354 0
-353 -354 0
352 353 354 0
-355 -356 0
-355 -357 0
-356 -357 0
355 356 357 0
-358 -359 0
-358 -360 0
-359 -360 0
358 359 360 0
-361 -362 0
-361 -363 0
-362 -363 0
361 362 363 0
-364 -365 0
-364 -366 0
-365 -366 0
364 365 366 0
-367 -368 0
-367 -369 0
-368 -369 0
367 368 369 0
-370 -371 0
-370 -372 0
-371 -372 0
370 371 372 0
-373 -374 0
-373 -375 0
-374 -375 0
373 374 375 0
-376 -377 0
-376 -378 0
-377 -378 0
376 377 378 0
-379 -380 0
-379 -381 0
-380 -381 0
379 380 381 0
-382 -383 0
-382 -384 0
-383 -384 0
382 383 384 0
-385 -386 0
-385 -387 0
-386 -387 0
385 386 387 0
-388 -389 0
-388 -390 0
-389 -390 0
388 389 390 0
-391 -392 0
-391 -393 0
-392 -393 0
391 392 393 0
-394 -395 0
-394 -396 0
-395 -396 0
394 395 396 0
-397 -398 0
-397 -399 0
-398 -399 0
397 398 399 0
-400 -401 0
-400 -402 0
-401 -402 0
400 401 402 0
-403 -404 0
-403 -405 0
-404 -405 0
403 404 405 0
-406 -407 0
-406 -408 0
-407 -408 0
406 407 408 0
-409 -410 0
-409 -411 0
-410 -411 0
409 410 411 0
-412 -413 0
-412 -414 0
-413 -414 0
412 413 414 0
-415 -416 0
-415 -417 0
-416 -417 0
415 416 417 0
-418 -419 0
-418 -420 0
-419 -420 0
418 419 420 0
-421 -422 0
-421 -423 0
-422 -423 0
421 422 423 0
-424 -425 0
-424 -426 0
-425 -426 0
424 425 426 0
-427 -428 0
-427 -429 0
-428 -429 0
427 428 429 0
-430 -431 0
-430 -432 0
-431 -432 0
430 431 432 0
-433 -434 0
-433 -435 0
-434 -435 0
433 434 435 0
-436 -437 0
-436 -438 0
-437 -438 0
436 437 438 0
-439 -440 0
-439 -441 0
-440 -441 0
439 440 441 0
-442 -443 0
-442 -444 0
-443 -444 0
442 443 444 0
-445 -446 0
-445 -447 0
-446 -447 0
445 446 447 0
-448 -449 0
-448 -450 0
-449 -450 0
448 449 450 0
-451 -452 0
-451 -453 0
-452 -453 0
451 452 453 0
-454 -455 0
-454 -456 0
-455 -456 0
454 455 456 0
-457 -458 0
-457 -459 0
-458 -459 0
457 458 459 0
-460 -461 0
-460 -462 0
-461 -462 0
460 461 462 0
-463 -464 0
-463 -465 0
-464 -465 0
463 464 465 0
-466 -467 0
-466 -468 0
-467 -468 0
466 467 468 0
-469 -470 0
-469 -471 0
-470 -471 0
469 470 471 0
-472 -473 0
-472 -474 0
-473 -474 0
472 473 474 0
-475 -476 0
-475 -477 0
-476 -477 0
475 476 477 0
-478 -479 0
-478 -480 0
-479 -480 0
478 479 480 0
-481 -482 0
-481 -483 0
-482 -483 0
481 482 483 0
-484 -485 0
-484 -486 0
-485 -486 0
484 485 486 0
-487 -488 0
-487 -489 0
-488 -489 0
487 488 489 0
-490 -491 0
-490 -492 0
-491 -492 0
490 491 492 0
-493 -494 0
-493 -495 0
-494 -495 0
493 494 495 0
-496 -497 0
-496 -498 0
-497 -498 0
496 497 498 0
-499 -500 0
-499 -501 0
-500 -501 0
499 500 501 0
-502 -503 0
-502 -504 0
-503 -504 0
502 503 504 0
-505 -506 0
-505 -507 0
-506 -507 0
505 506 507 0
-508 -509 0
-508 -510 0
-509 -510 0
508 509 510 0
-511 -512 0
-511 -513 0
-512 -513 0
511 512 513 0
-514 -515 0
-514 -516 0
-515 -516 0
514 515 516 0
-517 -518 0
-517 -519 0
-518 -519 0
517 518 519 0
-520 -521 0
-520 -522 0
-521 -522 0
520 521 522 0
-523 -524 0
-523 -525 0
-524 -525 0
523 524 525 0
-526 -527 0
-526 -528 0
-527 -528 0
526 527 528 0
-529 -530 0
-529 -531 0
-530 -531 0
529 530 531 0
-532 -533 0
-532 -534 0
-533 -534 0
532 533 534 0
-535 -536 0
-535 -537 0
-536 -537 0
535 536 537 0
-538 -539 0
-538 -540 0
-539 -540 0
538 539 540 0
-541 -542 0
-541 -543 0
-542 -543 0
541 542 543 0
-544 -545 0
-544 -546 0
-545 -546 0
544 545 546 0
-547 -548 0
-547 -549 0
-548 -549 0
547 548 549 0
-550 -551 0
-550 -552 0
-551 -552 0
550 551 552 0
-553 -554 0
-553 -555 0
-554 -555 0
553 554 555 0
-556 -557 0
-556 -558 0
-557 -558 0
556 557 558 0
-559 -560 0
-559 -561 0
-560 -561 0
559 560 561 0
-562 -563 0
-562 -564 0
-563 -564 0
562 563 564 0
-565 -566 0
-565 -567 0
-566 -567 0
565 566 567 0
-568 -569 0
-568 -570 0
-569 -570 0
568 569 570 0
-571 -572 0
-571 -573 0
-572 -573 0
571 572 573 0
-574 -575 0
-574 -576 0
-575 -576 0
574 575 576 0
-577 -578 0
-577 -579 0
-578 -579 0
577 578 579 0
-580 -581 0
-580 -582 0
-581 -582 0
580 581 582 0
-583 -584 0
-583 -585 0
-584 -585 0
583 584 585 0
-586 -587 0
-586 -588 0
-587 -588 0
586 587 588 0
-589 -590 0
-589 -591 0
-590 -591 0
589 590 591 0
-592 -593 0
-592 -594 0
-593 -594 0
592 593 594 0
-595 -596 0
-595 -597 0
-596 -597 0
595 596 597 0
-598 -599 0
-598 -600 0
-599 -600 0
598 599 600 0
-247 -1 0
-248 -2 0
-249 -3 0
-394 -1 0
-395 -2 0
-396 -3 0
-13 -4 0
-14 -5 0
-15 -6 0
-142 -4 0
-143 -5 0
-144 -6 0
-286 -4 0
-287 -5 0
-288 -6 0
-538 -4 0
-539 -5 0
-540 -6 0
-586 -4 0
-587 -5 0
-588 -6 0
-160 -7 0
-161 -8 0
-162 -9 0
-505 -7 0
-506 -8 0
-507 -9 0
-550 -7 0
-551 -8 0
-552 -9 0
-178 -10 0
-179 -11 0
-180 -12 0
-211 -10 0
-212 -11 0
-213 -12 0
-316 -10 0
-317 -11 0
-318 -12 0
-367 -10 0
-368 -11 0
-369 -12 0
-442 -10 0
-443 -11 0
-444 -12 0
-514 -10 0
-515 -11 0
-516 -12 0
-454 -13 0
-455 -14 0
-456 -15 0
-547 -13 0
-548 -14 0
-549 -15 0
-187 -16 0
-188 -17 0
-189 -18 0
-319 -16 0
-320 -17 0
-321 -18 0
-472 -16 0
-473 -17 0
-474 -18 0
-490 -16 0
-491 -17 0
-492 -18 0
-193 -19 0
-194 -20 0
-195 -21 0
-232 -19 0
-233 -20 0
-234 -21 0
-301 -19 0
-302 -20 0
-303 -21 0
-331 -19 0
-332 -20 0
-333 -21 0
-346 -19 0
-347 -20 0
-348 -21 0
-397 -19 0
-398 -20 0
-399 -21 0
-481 -19 0
-482 -20 0
-483 -21 0
-49 -22 0
-50 -23 0
-51 -24 0
-106 -22 0
-107 -23 0
-108 -24 0
-154 -22 0
-155 -23 0
-156 -24 0
-259 -22 0
-260 -23 0
-261 -24 0
-286 -22 0
-287 -23 0
-288 -24 0
-424 -22 0
-425 -23 0
-426 -24 0
-61 -25 0
-62 -26 0
-63 -27 0
-91 -25 0
-92 -26 0
-93 -27 0
-244 -25 0
-245 -26 0
-246 -27 0
-352 -25 0
-353 -26 0
-354 -27 0
-313 -28 0
-314 -29 0
-315 -30 0
-349 -28 0
-350 -29 0
-351 -30 0
-433 -28 0
-434 -29 0
-435 -30 0
-454 -28 0
-455 -29 0
-456 -30 0
-457 -28 0
-458 -29 0
-459 -30 0
-52 -31 0
-53 -32 0
-54 -33 0
-139 -31 0
-140 -32 0
-141 -33 0
-181 -31 0
-182 -32 0
-183 -33 0
-409 -31 0
-410 -32 0
-411 -33 0
-463 -31 0
-464 -32 0
-465 -33 0
-469 -31 0
-470 -32 0
-471 -33 0
-97 -34 0
-98 -35 0
-99 -36 0
-214 -34 0
-215 -35 0
-216 -36 0
-289 -34 0
-290 -35 0
-291 -36 0
-442 -34 0
-443 -35 0
-444 -36 0
-484 -34 0
-485 -35 0
-486 -36 0
-73 -37 0
-74 -38 0
-75 -39 0
-232 -37 0
-233 -38 0
-234 -39 0
-268 -37 0
-269 -38 0
-270 -39 0
-508 -37 0
-509 -38 0
-510 -39 0
-307 -40 0
-308 -41 0
-309 -42 0
-310 -40 0
-311 -41 0
-312 -42 0
-430 -40 0
-431 -41 0
-432 -42 0
-109 -43 0
-110 -44 0
-111 -45 0
-274 -43 0
-275 -44 0
-276 -45 0
-337 -43 0
-338 -44 0
-339 -45 0
-358 -43 0
-359 -44 0
-360 -45 0
-145 -46 0
-146 -47 0
-147 -48 0
-172 -46 0
-173 -47 0
-174 -48 0
-205 -46 0
-206 -47 0
-207 -48 0
-427 -46 0
-428 -47 0
-429 -48 0
-433 -46 0
-434 -47 0
-435 -48 0
-76 -49 0
-77 -50 0
-78 -51 0
-346 -49 0
-347 -50 0
-348 -51 0
-472 -49 0
-473 -50 0
-474 -51 0
-94 -52 0
-95 -53 0
-96 -54 0
-163 -52 0
-164 -53 0
-165 -54 0
-241 -52 0
-242 -53 0
-243 -54 0
-364 -52 0
-365 -53 0
-366 -54 0
-514 -52 0
-515 -53 0
-516 -54 0
-532 -52 0
-533 -53 0
-534 -54 0
-595 -52 0
-596 -53 0
-597 -54 0
-91 -55 0
-92 -56 0
-93 -57 0
-148 -55 0
-149 -56 0
-150 -57 0
-151 -55 0
-152 -56 0
-153 -57 0
-169 -55 0
-170 -56 0
-171 -57 0
-349 -55 0
-350 -56 0
-351 -57 0
-535 -55 0
-536 -56 0
-537 -57 0
-541 -55 0
-542 -56 0
-543 -57 0
-73 -58 0
-74 -59 0
-75 -60 0
-94 -58 0
-95 -59 0
-96 -60 0
-220 -58 0
-221 -59 0
-222 -60 0
-226 -58 0
-227 -59 0
-228 -60 0
-232 -58 0
-233 -59 0
-234 -60 0
-331 -58 0
-332 -59 0
-333 -60 0
-529 -58 0
-530 -59 0
-531 -60 0
-76 -61 0
-77 -62 0
-78 -63 0
-463 -61 0
-464 -62 0
-465 -63 0
-88 -64 0
-89 -65 0
-90 -66 0
-148 -64 0
-149 -65 0
-150 -66 0
-244 -64 0
-245 -65 0
-246 -66 0
-322 -64 0
-323 -65 0
-324 -66 0
-400 -64 0
-401 -65 0
-402 -66 0
-445 -64 0
-446 -65 0
-447 -66 0
-112 -67 0
-113 -68 0
-114 -69 0
-328 -67 0
-329 -68 0
-330 -69 0
-400 -67 0
-401 -68 0
-402 -69 0
-574 -67 0
-575 -68 0
-576 -69 0
-598 -67 0
-599 -68 0
-600 -69 0
-175 -70 0
-176 -71 0
-177 -72 0
-370 -70 0
-371 -71 0
-372 -72 0
-478 -70 0
-479 -71 0
-480 -72 0
-103 -73 0
-104 -74 0
-105 -75 0
-289 -73 0
-290 -74 0
-291 -75 0
-430 -73 0
-431 -74 0
-432 -75 0
-451 -73 0
-452 -74 0
-453 -75 0
-484 -73 0
-485 -74 0
-486 -75 0
-589 -73 0
-590 -74 0
-591 -75 0
-133 -76 0
-134 -77 0
-135 -78 0
-259 -76 0
-260 -77 0
-261 -78 0
-370 -76 0
-371 -77 0
-372 -78 0
-490 -76 0
-491 -77 0
-492 -78 0
-112 -79 0
-113 -80 0
-114 -81 0
-349 -79 0
-350 -80 0
-351 -81 0
-361 -79 0
-362 -80 0
-363 -81 0
-430 -79 0
-431 -80 0
-432 -81 0
-139 -82 0
-140 -83 0
-141 -84 0
-184 -82 0
-185 -83 0
-186 -84 0
-247 -82 0
-248 -83 0
-249 -84 0
-334 -82 0
-335 -83 0
-336 -84 0
-448 -82 0
-449 -83 0
-450 -84 0
-511 -82 0
-512 -83 0
-513 -84 0
-202 -85 0
-203 -86 0
-204 -87 0
-289 -85 0
-290 -86 0
-291 -87 0
-352 -85 0
-353 -86 0
-354 -87 0
-154 -88 0
-155 -89 0
-156 -90 0
-292 -88 0
-293 -89 0
-294 -90 0
-448 -88 0
-449 -89 0
-450 -90 0
-241 -91 0
-242 -92 0
-243 -93 0
-307 -91 0
-308 -92 0
-309 -93 0
-136 -94 0
-137 -95 0
-138 -96 0
-220 -94 0
-221 -95 0
-222 -96 0
-442 -94 0
-443 -95 0
-444 -96 0
-544 -94 0
-545 -95 0
-546 -96 0
-265 -97 0
-266 -98 0
-267 -99 0
-574 -97 0
-575 -98 0
-576 -99 0
-595 -97 0
-596 -98 0
-597 -99 0
-334 -100 0
-335 -101 0
-336 -102 0
-400 -100 0
-401 -101 0
-402 -102 0
-472 -100 0
-473 -101 0
-474 -102 0
-526 -100 0
-527 -101 0
-528 -102 0
-193 -103 0
-194 -104 0
-195 -105 0
-259 -103 0
-260 -104 0
-261 -105 0
-424 -103 0
-425 -104 0
-426 -105 0
-559 -103 0
-560 -104 0
-561 -105 0
-133 -106 0
-134 -107 0
-135 -108 0
-271 -106 0
-272 -107 0
-273 -108 0
-541 -106 0
-542 -107 0
-543 -108 0
-598 -106 0
-599 -107 0
-600 -108 0
-220 -109 0
-221 -110 0
-222 -111 0
-259 -109 0
-260 -110 0
-261 -111 0
-283 -109 0
-284 -110 0
-285 -111 0
-307 -109 0
-308 -110 0
-309 -111 0
-340 -109 0
-341 -110 0
-342 -111 0
-214 -112 0
-215 -113 0
-216 -114 0
-478 -112 0
-479 -113 0
-480 -114 0
-196 -115 0
-197 -116 0
-198 -117 0
-256 -115 0
-257 -116 0
-258 -117 0
-439 -115 0
-440 -116 0
-441 -117 0
-241 -118 0
-242 -119 0
-243 -120 0
-334 -118 0
-335 -119 0
-336 -120 0
-388 -118 0
-389 -119 0
-390 -120 0
-469 -118 0
-470 -119 0
-471 -120 0
-214 -121 0
-215 -122 0
-216 -123 0
-316 -121 0
-317 -122 0
-318 -123 0
-166 -124 0
-167 -125 0
-168 -126 0
-238 -124 0
-239 -125 0
-240 -126 0
-385 -124 0
-386 -125 0
-387 -126 0
-475 -124 0
-476 -125 0
-477 -126 0
-541 -124 0
-542 -125 0
-543 -126 0
-283 -127 0
-284 -128 0
-285 -129 0
-409 -127 0
-410 -128 0
-411 -129 0
-145 -130 0
-146 -131 0
-147 -132 0
-190 -130 0
-191 -131 0
-192 -132 0
-283 -130 0
-284 -131 0
-285 -132 0
-172 -133 0
-173 -134 0
-174 -135 0
-187 -133 0
-188 -134 0
-189 -135 0
-334 -133 0
-335 -134 0
-336 -135 0
-556 -133 0
-557 -134 0
-558 -135 0
-268 -136 0
-269 -137 0
-270 -138 0
-433 -136 0
-434 -137 0
-435 -138 0
-556 -136 0
-557 -137 0
-558 -138 0
-475 -139 0
-476 -140 0
-477 -141 0
-562 -139 0
-563 -140 0
-564 -141 0
-580 -139 0
-581 -140 0
-582 -141 0
-583 -139 0
-584 -140 0
-585 -141 0
-598 -139 0
-599 -140 0
-600 -141 0
-292 -142 0
-293 -143 0
-294 -144 0
-442 -142 0
-443 -143 0
-444 -144 0
-250 -145 0
-251 -146 0
-252 -147 0
-274 -145 0
-275 -146 0
-276 -147 0
-223 -148 0
-224 -149 0
-225 -150 0
-388 -148 0
-389 -149 0
-390 -150 0
-535 -148 0
-536 -149 0
-537 -150 0
-214 -151 0
-215 -152 0
-216 -153 0
-205 -154 0
-206 -155 0
-207 -156 0
-241 -154 0
-242 -155 0
-243 -156 0
-526 -154 0
-527 -155 0
-528 -156 0
-235 -157 0
-236 -158 0
-237 -159 0
-277 -157 0
-278 -158 0
-279 -159 0
-376 -157 0
-377 -158 0
-378 -159 0
-586 -157 0
-587 -158 0
-588 -159 0
-595 -157 0
-596 -158 0
-597 -159 0
-253 -160 0
-254 -161 0
-255 -162 0
-265 -160 0
-266 -161 0
-267 -162 0
-355 -160 0
-356 -161 0
-357 -162 0
-496 -160 0
-497 -161 0
-498 -162 0
-538 -160 0
-539 -161 0
-540 -162 0
-373 -163 0
-374 -164 0
-375 -165 0
-385 -163 0
-386 -164 0
-387 -165 0
-442 -163 0
-443 -164 0
-444 -165 0
-484 -163 0
-485 -164 0
-486 -165 0
-514 -163 0
-515 -164 0
-516 -165 0
-190 -166 0
-191 -167 0
-192 -168 0
-202 -166 0
-203 -167 0
-204 -168 0
-430 -166 0
-431 -167 0
-432 -168 0
-589 -166 0
-590 -167 0
-591 -168 0
-271 -169 0
-272 -170 0
-273 -171 0
-373 -169 0
-374 -170 0
-375 -171 0
-511 -169 0
-512 -170 0
-513 -171 0
-580 -169 0
-581 -170 0
-582 -171 0
-202 -172 0
-203 -173 0
-204 -174 0
-370 -172 0
-371 -173 0
-372 -174 0
-538 -172 0
-539 -173 0
-540 -174 0
-598 -172 0
-599 -173 0
-600 -174 0
-232 -175 0
-233 -176 0
-234 -177 0
-424 -175 0
-425 -176 0
-426 -177 0
-469 -175 0
-470 -176 0
-471 -177 0
-532 -175 0
-533 -176 0
-534 -177 0
-304 -178 0
-305 -179 0
-306 -180 0
-370 -178 0
-371 -179 0
-372 -180 0
-460 -178 0
-461 -179 0
-462 -180 0
-502 -178 0
-503 -179 0
-504 -180 0
-529 -178 0
-530 -179 0
-531 -180 0
-205 -181 0
-206 -182 0
-207 -183 0
-382 -181 0
-383 -182 0
-384 -183 0
-415 -181 0
-416 -182 0
-417 -183 0
-568 -181 0
-569 -182 0
-570 -183 0
-187 -184 0
-188 -185 0
-189 -186 0
-328 -184 0
-329 -185 0
-330 -186 0
-346 -184 0
-347 -185 0
-348 -186 0
-454 -184 0
-455 -185 0
-456 -186 0
-466 -184 0
-467 -185 0
-468 -186 0
-310 -187 0
-311 -188 0
-312 -189 0
-412 -187 0
-413 -188 0
-414 -189 0
-565 -187 0
-566 -188 0
-567 -189 0
-193 -190 0
-194 -191 0
-195 -192 0
-331 -190 0
-332 -191 0
-333 -192 0
-535 -190 0
-536 -191 0
-537 -192 0
-316 -193 0
-317 -194 0
-318 -195 0
-364 -193 0
-365 -194 0
-366 -195 0
-571 -193 0
-572 -194 0
-573 -195 0
-355 -196 0
-356 -197 0
-357 -198 0
-358 -196 0
-359 -197 0
-360 -198 0
-520 -196 0
-521 -197 0
-522 -198 0
-523 -196 0
-524 -197 0
-525 -198 0
-439 -199 0
-440 -200 0
-441 -201 0
-457 -199 0
-458 -200 0
-459 -201 0
-484 -199 0
-485 -200 0
-486 -201 0
-559 -199 0
-560 -200 0
-561 -201 0
-244 -202 0
-245 -203 0
-246 -204 0
-403 -202 0
-404 -203 0
-405 -204 0
-262 -205 0
-263 -206 0
-264 -207 0
-370 -205 0
-371 -206 0
-372 -207 0
-214 -208 0
-215 -209 0
-216 -210 0
-337 -211 0
-338 -212 0
-339 -213 0
-457 -211 0
-458 -212 0
-459 -213 0
-247 -214 0
-248 -215 0
-249 -216 0
-484 -214 0
-485 -215 0
-486 -216 0
-382 -217 0
-383 -218 0
-384 -219 0
-397 -217 0
-398 -218 0
-399 -219 0
-400 -220 0
-401 -221 0
-402 -222 0
-460 -220 0
-461 -221 0
-462 -222 0
-571 -220 0
-572 -221 0
-573 -222 0
-394 -223 0
-395 -224 0
-396 -225 0
-481 -223 0
-482 -224 0
-483 -225 0
-520 -223 0
-521 -224 0
-522 -225 0
-541 -223 0
-542 -224 0
-543 -225 0
-253 -226 0
-254 -227 0
-255 -228 0
-355 -226 0
-356 -227 0
-357 -228 0
-439 -226 0
-440 -227 0
-441 -228 0
-457 -226 0
-458 -227 0
-459 -228 0
-265 -229 0
-266 -230 0
-267 -231 0
-388 -229 0
-389 -230 0
-390 -231 0
-334 -232 0
-335 -233 0
-336 -234 0
-496 -232 0
-497 -233 0
-498 -234 0
-244 -235 0
-245 -236 0
-246 -237 0
-319 -238 0
-320 -239 0
-321 -240 0
-370 -238 0
-371 -239 0
-372 -240 0
-400 -238 0
-401 -239 0
-402 -240 0
-406 -238 0
-407 -239 0
-408 -240 0
-256 -241 0
-257 -242 0
-258 -243 0
-397 -241 0
-398 -242 0
-399 -243 0
-592 -241 0
-593 -242 0
-594 -243 0
-298 -244 0
-299 -245 0
-300 -246 0
-337 -244 0
-338 -245 0
-339 -246 0
-469 -244 0
-470 -245 0
-471 -246 0
-508 -244 0
-509 -245 0
-510 -246 0
-367 -247 0
-368 -248 0
-369 -249 0
-454 -247 0
-455 -248 0
-456 -249 0
-463 -247 0
-464 -248 0
-465 -249 0
-262 -250 0
-263 -251 0
-264 -252 0
-331 -250 0
-332 -251 0
-333 -252 0
-415 -250 0
-416 -251 0
-417 -252 0
-481 -250 0
-482 -251 0
-483 -252 0
-592 -250 0
-593 -251 0
-594 -252 0
-385 -253 0
-386 -254 0
-387 -255 0
-583 -253 0
-584 -254 0
-585 -255 0
-589 -253 0
-590 -254 0
-591 -255 0
-307 -256 0
-308 -257 0
-309 -258 0
-382 -259 0
-383 -260 0
-384 -261 0
-568 -259 0
-569 -260 0
-570 -261 0
-406 -262 0
-407 -263 0
-408 -264 0
-418 -262 0
-419 -263 0
-420 -264 0
-565 -262 0
-566 -263 0
-567 -264 0
-586 -262 0
-587 -263 0
-588 -264 0
-577 -265 0
-578 -266 0
-579 -267 0
-430 -268 0
-431 -269 0
-432 -270 0
-295 -271 0
-296 -272 0
-297 -273 0
-394 -271 0
-395 -272 0
-396 -273 0
-436 -271 0
-437 -272 0
-438 -273 0
-490 -271 0
-491 -272 0
-492 -273 0
-517 -271 0
-518 -272 0
-519 -273 0
-577 -271 0
-578 -272 0
-579 -273 0
-478 -277 0
-479 -278 0
-480 -279 0
-484 -277 0
-485 -278 0
-486 -279 0
-319 -280 0
-320 -281 0
-321 -282 0
-421 -280 0
-422 -281 0
-423 -282 0
-343 -283 0
-344 -284 0
-345 -285 0
-352 -283 0
-353 -284 0
-354 -285 0
-424 -283 0
-425 -284 0
-426 -285 0
-355 -286 0
-356 -287 0
-357 -288 0
-376 -286 0
-377 -287 0
-378 -288 0
-298 -289 0
-299 -290 0
-300 -291 0
-346 -289 0
-347 -290 0
-348 -291 0
-397 -289 0
-398 -290 0
-399 -291 0
-400 -289 0
-401 -290 0
-402 -291 0
-478 -289 0
-479 -290 0
-480 -291 0
-319 -292 0
-320 -293 0
-321 -294 0
-343 -292 0
-344 -293 0
-345 -294 0
-394 -292 0
-395 -293 0
-396 -294 0
-424 -292 0
-425 -293 0
-426 -294 0
-430 -292 0
-431 -293 0
-432 -294 0
-583 -292 0
-584 -293 0
-585 -294 0
-337 -295 0
-338 -296 0
-339 -297 0
-400 -295 0
-401 -296 0
-402 -297 0
-436 -295 0
-437 -296 0
-438 -297 0
-559 -295 0
-560 -296 0
-561 -297 0
-505 -301 0
-506 -302 0
-507 -303 0
-535 -301 0
-536 -302 0
-537 -303 0
-556 -301 0
-557 -302 0
-558 -303 0
-358 -304 0
-359 -305 0
-360 -306 0
-433 -304 0
-434 -305 0
-435 -306 0
-592 -304 0
-593 -305 0
-594 -306 0
-466 -307 0
-467 -308 0
-468 -309 0
-376 -310 0
-377 -311 0
-378 -312 0
-436 -310 0
-437 -311 0
-438 -312 0
-550 -310 0
-551 -311 0
-552 -312 0
-355 -313 0
-356 -314 0
-357 -315 0
-379 -313 0
-380 -314 0
-381 -315 0
-415 -313 0
-416 -314 0
-417 -315 0
-481 -313 0
-482 -314 0
-483 -315 0
-340 -316 0
-341 -317 0
-342 -318 0
-526 -316 0
-527 -317 0
-528 -318 0
-424 -319 0
-425 -320 0
-426 -321 0
-562 -319 0
-563 -320 0
-564 -321 0
-550 -322 0
-551 -323 0
-552 -324 0
-535 -325 0
-536 -326 0
-537 -327 0
-538 -325 0
-539 -326 0
-540 -327 0
-349 -328 0
-350 -329 0
-351 -330 0
-397 -328 0
-398 -329 0
-399 -330 0
-529 -328 0
-530 -329 0
-531 -330 0
-559 -328 0
-560 -329 0
-561 -330 0
-415 -331 0
-416 -332 0
-417 -333 0
-478 -331 0
-479 -332 0
-480 -333 0
-520 -331 0
-521 -332 0
-522 -333 0
-529 -331 0
-530 -332 0
-531 -333 0
-565 -334 0
-566 -335 0
-567 -336 0
-580 -334 0
-581 -335 0
-582 -336 0
-346 -337 0
-347 -338 0
-348 -339 0
-442 -337 0
-443 -338 0
-444 -339 0
-463 -337 0
-464 -338 0
-465 -339 0
-538 -337 0
-539 -338 0
-540 -339 0
-367 -340 0
-368 -341 0
-369 -342 0
-592 -340 0
-593 -341 0
-594 -342 0
-391 -346 0
-392 -347 0
-393 -348 0
-526 -346 0
-527 -347 0
-528 -348 0
-562 -346 0
-563 -347 0
-564 -348 0
-373 -349 0
-374 -350 0
-375 -351 0
-391 -349 0
-392 -350 0
-393 -351 0
-478 -352 0
-479 -353 0
-480 -354 0
-370 -355 0
-371 -356 0
-372 -357 0
-409 -358 0
-410 -359 0
-411 -360 0
-418 -358 0
-419 -359 0
-420 -360 0
-442 -358 0
-443 -359 0
-444 -360 0
-364 -361 0
-365 -362 0
-366 -363 0
-472 -361 0
-473 -362 0
-474 -363 0
-520 -361 0
-521 -362 0
-522 -363 0
-556 -361 0
-557 -362 0
-558 -363 0
-493 -364 0
-494 -365 0
-495 -366 0
-502 -364 0
-503 -365 0
-504 -366 0
-487 -370 0
-488 -371 0
-489 -372 0
-517 -373 0
-518 -374 0
-519 -375 0
-523 -376 0
-524 -377 0
-525 -378 0
-547 -376 0
-548 -377 0
-549 -378 0
-529 -382 0
-530 -383 0
-531 -384 0
-388 -385 0
-389 -386 0
-390 -387 0
-418 -385 0
-419 -386 0
-420 -387 0
-508 -385 0
-509 -386 0
-510 -387 0
-487 -391 0
-488 -392 0
-489 -393 0
-562 -391 0
-563 -392 0
-564 -393 0
-448 -397 0
-449 -398 0
-450 -399 0
-493 -397 0
-494 -398 0
-495 -399 0
-583 -397 0
-584 -398 0
-585 -399 0
-586 -400 0
-587 -401 0
-588 -402 0
-544 -403 0
-545 -404 0
-546 -405 0
-550 -403 0
-551 -404 0
-552 -405 0
-436 -406 0
-437 -407 0
-438 -408 0
-535 -406 0
-536 -407 0
-537 -408 0
-595 -406 0
-596 -407 0
-597 -408 0
-493 -412 0
-494 -413 0
-495 -414 0
-505 -412 0
-506 -413 0
-507 -414 0
-418 -415 0
-419 -416 0
-420 -417 0
-451 -415 0
-452 -416 0
-453 -417 0
-544 -415 0
-545 -416 0
-546 -417 0
-553 -415 0
-554 -416 0
-555 -417 0
-511 -418 0
-512 -419 0
-513 -420 0
-556 -418 0
-557 -419 0
-558 -420 0
-439 -421 0
-440 -422 0
-441 -423 0
-493 -421 0
-494 -422 0
-495 -423 0
-532 -421 0
-533 -422 0
-534 -423 0
-523 -424 0
-524 -425 0
-525 -426 0
-442 -427 0
-443 -428 0
-444 -429 0
-559 -427 0
-560 -428 0
-561 -429 0
-502 -430 0
-503 -431 0
-504 -432 0
-586 -430 0
-587 -431 0
-588 -432 0
-526 -433 0
-527 -434 0
-528 -435 0
-508 -436 0
-509 -437 0
-510 -438 0
-562 -436 0
-563 -437 0
-564 -438 0
-571 -436 0
-572 -437 0
-573 -438 0
-592 -445 0
-593 -446 0
-594 -447 0
-520 -448 0
-521 -449 0
-522 -450 0
-586 -451 0
-587 -452 0
-588 -453 0
-487 -454 0
-488 -455 0
-489 -456 0
-574 -457 0
-575 -458 0
-576 -459 0
-508 -463 0
-509 -464 0
-510 -465 0
-475 -466 0
-476 -467 0
-477 -468 0
-562 -466 0
-563 -467 0
-564 -468 0
-529 -469 0
-530 -470 0
-531 -471 0
-529 -475 0
-530 -476 0
-531 -477 0
-571 -478 0
-572 -479 0
-573 -480 0
-511 -490 0
-512 -491 0
-513 -492 0
-595 -496 0
-596 -497 0
-597 -498 0
-508 -499 0
-509 -500 0
-510 -501 0
-520 -502 0
-521 -503 0
-522 -504 0
-583 -505 0
-584 -506 0
-585 -507 0
-550 -508 0
-551 -509 0
-552 -510 0
-544 -514 0
-545 -515 0
-546 -516 0
-574 -514 0
-575 -515 0
-576 -516 0
-541 -517 0
-542 -518 0
-543 -519 0
-541 -520 0
-542 -521 0
-543 -522 0
-574 -523 0
-575 -524 0
-576 -525 0
-598 -547 0
-599 -548 0
-600 -549 0
-580 -550 0
-581 -551 0
-582 -552 0
-568 -553 0
-569 -554 0
-570 -555 0
-595 -553 0
-596 -554 0
-597 -555 0
-598 -556 0
-599 -557 0
-600 -558 0
-568 -559 0
-569 -560 0
-570 -561 0
-577 -565 0
-578 -566 0
-579 -567 0
-589 -574 0
-590 -575 0
-591 -576 0
